N = 60;
W = 100;
H = 100;
ItemWidth = [ 48, 37, 33, 53, 6, 36, 39, 40, 37, 55, 60, 61, 71, 88, 16, 21, 46, 50, 25, 8, 11, 31, 28, 28, 44, 41, 21, 98, 7, 14, 12, 37, 83, 2, 80, 23, 36, 34, 42, 13, 50, 26, 32, 18, 8, 37, 23, 3, 32, 50, 45, 12, 35, 28, 19, 14, 32, 3, 19, 47 ];
ItemHeight = [ 100, 99, 91, 85, 79, 78, 72, 72, 66, 65, 57, 53, 52, 50, 50, 49, 49, 48, 48, 46, 38, 37, 37, 36, 35, 35, 34, 33, 31, 31, 31, 29, 25, 23, 22, 22, 22, 19, 18, 17, 16, 15, 15, 15, 14, 14, 13, 13, 12, 11, 11, 10, 10, 9, 9, 9, 7, 7, 7, 4 ];
